Reproduction of the Original Problem/Instances/S2-10/S2-10-10-3-s.txt
     200      10    0.10
       3       1       1       1       1       3       1       3       3       1      10       3       0      13       1      11      15      15      16       1       2
       1       3       1       3       1       1       3       3       1       1      15       2       3      13      10      16      15      14      13      12       1
       3       2       1       2       3       1       1       2       1       2       5       9       9       7       5      15       2       1       9       5       1
       2       3       1       1       3       2       2       3       3       3      12       8       6       5       5       0      10       5       5       0       2
       1       1       2       2       1       3       3       2       2       1       5      14       7      10      11       5      16       2      16       8       1
       2       1       1       3       2       2       1       1       1       3      12       1      16      12       9       1      10       7      12       2       2
       2       1       1       1       3       1       3       2       3       1       8      16      13       6       0       5       5      15      13       0       2
       1       3       3       1       1       1       1       2       1       2       6      14       3       2       5       7       4      16       0      13       2
       3       1       1       3       3       1       2       3       3       3      16       8      15       4      15       5      16       9      14       9       1
       2       2       2       3       2       3       2       2       3       3      14       1       7       8      15       2       4      11      16      13       2
       1       1       1       2       3       2       1       3       1       3       1      10      13      11      13       4       9       9       7       9       2
       3       3       1       1       2       2       1       3       1       2       5       1      12       9      10      15       0       8      16       1       2
       1       2       2       2       2       3       3       1       2       2      13      13      15      10       4      15      14       2       8      16       1
       3       2       3       1       2       2       2       1       2       3      10       3      10      15       1      10       3       2      13      14       2
       2       3       3       1       1       2       2       2       2       1      15      15      16      10       1       6       2       1      12       7       1
       2       1       1       2       1       2       3       1       3       2      15       1       8       2       2       1       9       1       6       7       2
       1       1       2       2       2       3       2       2       1       2      12       3      14       9      14      10       3       0       9       0       1
       1       3       3       2       1       1       1       1       3       3       2       4      10       4       0       5       1      16       3      10       1
       2       1       2       3       3       3       3       2       2       3      14       7      13       1       9      16       9      12      10       0       1
       1       3       2       1       1       3       2       2       3       1       9      16       4      14       9       8       3       4       1       4       1
       2       1       3       2       1       2       1       3       3       2       1      15       4      12      11      11       5       0       6      12       1
       2       2       2       2       3       3       1       2       3       1      15       1       9      14       8       5      12      12      11      15       2
       1       2       1       2       3       2       3       2       3       1       3      12       4       2       0      15      16       0      13       3       2
       2       2       3       2       1       1       1       3       1       2      13      12      11      14       8       3       6      14      14       3       1
       3       3       3       3       3       1       3       2       3       1       1      11      14       0       7      12      12       8       3      12       2
       1       2       3       1       1       3       3       2       2       1       4      11       6       3       0       1       9       9       8      10       1
       2       1       1       1       1       1       2       2       2       2       1      15      13       6       3       4      11       5       8      14       2
       2       1       1       2       2       3       2       2       2       2       2      13      11       0      14       2      13       8      14       0       2
       1       3       3       1       1       1       1       3       2       3       5      16      13      13      12       3       6       7       7      12       2
       3       3       1       1       3       1       1       3       3       3      13       9       4      10       0      14      11       1       7       0       2
       3       3       1       2       2       3       2       2       1       2       8       9       7       8       7       6       0       4       5      12       1
       1       3       3       2       1       1       2       2       3       1      14      12       1       5       9      14      13       9       0      16       2
       1       2       3       2       3       2       2       3       1       2       1      11       7       9       1       2       5       2       5       5       2
       1       2       1       1       3       2       2       2       1       1      15       1       2      14      14       0       9      10       1       7       2
       2       1       2       2       2       2       2       1       1       2      10      16       7      16       5       2       9      11       8       2       1
       2       2       1       1       1       3       2       2       3       1       8      16      10       1       6      11       2      12       6       5       1
       1       3       2       3       3       1       2       2       1       1       1       6      13       4       7       8      10       2       2      12       1
       2       2       1       1       1       2       3       3       1       1      12      11       9      11      11       2       1      16       0       6       1
       2       1       3       1       2       3       3       1       1       1      14      12       7       7       0      14      14       1      11       4       2
       1       1       2       2       1       3       2       3       1       3       3       5       0       6       7       7       2      10       3       8       1
       3       3       3       1       3       3       1       3       1       1       0       8      16      14      12       9       4      13       6       1       1
       3       3       2       3       2       3       2       3       1       1      16       9       3       6       2       2      16      16      12      10       2
       2       1       3       1       1       2       2       1       3       1      15       1       0       9      10      10       6      15       5       6       1
       2       2       3       1       1       1       1       2       2       1      11      11      12       4       4       5       2       8       6       8       1
       3       2       2       3       1       1       2       1       1       3      12       7      13       4      12       2       0       9      16       6       2
       2       2       1       2       3       2       2       1       3       1       5      16      12      14       2      12       4       7       3      11       1
       3       2       1       3       3       2       3       2       3       3      14       9       8       7       7       0      13       4      15      13       1
       3       3       1       1       1       2       2       1       1       2      15      14       3      12       6      15       6       8      16       4       2
       3       2       3       2       1       2       1       3       3       1       8      13       9       3       6      14       2       5       9       8       2
       1       3       3       1       1       2       2       1       3       2      13       8       6      15      14      11      10      14       8      11       1
       1       2       1       1       3       2       3       2       3       3       3      11       8       1       0       7       8      12      10       0       2
       1       1       2       2       3       2       3       3       2       1       3       4      16      10       8      13      16       5      15      16       1
       3       2       2       3       1       1       3       2       2       1      13       0       8       7       1       1       6      11       4      10       2
       1       1       1       1       3       1       1       1       2       1      14       1       3       7      16      10       8       3      12       4       1
       2       2       2       1       1       1       3       3       3       2      16       4      11       1       0      13       2       1      14      12       1
       2       3       3       3       2       1       1       2       3       3       5       2       9      11       5      16       5      14       2      13       2
       3       3       1       3       1       1       1       2       3       3       0      12       6       2       4       3      13       5       3       3       1
       1       1       2       3       3       2       1       3       3       2      14       1       0       4       3       4      15       9       7      12       1
       1       3       3       3       2       1       2       1       2       1      14       9      14       0       2      12       2      11       7      13       1
       1       3       3       2       2       3       3       3       3       3      10       7       6       8      16      13      12      16      16      12       2
       1       2       2       3       3       3       2       3       1       3       8       5      16       5       4       8      10      11      10       9       1
       2       2       1       1       3       3       3       3       1       1       8       3       6      13       9       3       3       9      13       5       1
       3       2       1       1       2       3       2       1       1       3      12       2       3       4      10       3      11      14       7      13       2
       1       1       3       1       2       3       3       1       1       1      14       2       4       4       0      12      16       2      14       9       1
       2       3       2       1       2       1       3       3       1       3      10       8       0       7      11      11      15       9       6       5       1
       3       3       2       2       2       1       2       1       3       3      15       3       2      15       8       0      13      11       1      11       1
       1       2       1       2       2       3       1       3       3       3       2       3       1      14      14       8      13      15       9      11       2
       3       1       2       2       3       3       3       2       2       2       8       6      15       8       9       7       2       9       5       0       1
       2       3       3       2       3       1       2       2       3       1      11       1      14       4      16      11       5       5       6      10       1
       1       2       2       1       2       2       3       3       2       1       1      16      10       8       8       7      11       1       3      15       1
       3       1       1       2       2       3       3       3       1       2       9      15       5       7       3      14      11      14       5      12       2
       1       2       1       1       2       2       3       3       3       2      15      12       8      12       9      15      15       8      12      10       2
       2       1       1       2       1       1       2       1       1       2       8       4       4       1       8       7      16       5       4      11       2
       3       1       3       2       3       3       1       2       1       3       5       1       4       2       8       4       2      15       9      16       2
       3       2       1       2       2       2       2       1       1       3       1       6      12       3       7       1      10       4       8      11       1
       3       2       1       3       1       3       2       3       1       1      13       2       9       2      16      12      10       0       8      14       1
       1       2       1       3       1       1       1       2       3       1      15       6       9      12       4       3       2      10      13      12       2
       1       3       1       2       3       1       2       2       2       1      16      14       4      13      13       2      16       2       4      14       1
       2       3       3       2       2       3       3       3       3       3      16       0       5      14      13       5       5      11      10       6       1
       2       3       2       1       3       3       2       1       1       1       9       9      15      15       3       7      10       9       8       3       2
       2       3       3       1       2       3       3       2       3       1       6      14      15       9       4      12       8       5      15       9       2
       2       1       3       3       1       3       2       3       3       3      12       3      14      14      12       6       9      16      11      15       1
       1       3       2       3       1       3       2       1       1       3       5       4       4      15       2      15       1      13       9       0       2
       3       3       1       3       1       1       3       2       1       3       8      11      14       3      10      14       1       1       2       7       1
       1       1       3       1       3       3       2       3       2       1       2      13       7       6      11       3      11       2       4       3       1
       1       3       3       1       1       3       2       2       3       3       7      16      10      10      14      10      12      14      12      12       2
       3       3       2       3       1       3       3       2       2       2       7       2       3      11       5       8       5      14       1      12       2
       1       1       3       2       2       1       3       2       3       2       8      11      15       7       7       2       6      12      16       6       1
       3       1       2       3       3       2       3       3       3       2      10       5       7      10       2      14      16      15      11       1       2
       1       3       3       2       3       1       2       1       2       2      12       5       8      14      10       4       7      14      11      10       1
       2       3       1       1       3       1       3       1       2       3      13       3       9       7      11       6      13       1       6       9       1
       2       3       3       2       1       3       2       2       3       3      12       8      11       0       1       0       4      10      14      14       2
       3       1       3       1       3       3       2       2       3       2       7      12      16      12      11       5      10       0       3      16       1
       3       3       2       2       2       3       2       1       1       3       4       3       7      16       7      12       7       6       9      11       2
       3       3       2       3       2       3       2       1       1       2       4       2       0      15      12       0       3       3       9       5       1
       2       2       1       2       3       2       3       2       2       3       3      14       6       8       4      10       2       4       0       1       1
       2       1       2       1       2       3       3       3       2       2       7      15      11       6       2      14      11       6       7       2       2
       1       3       3       3       1       1       1       2       3       3      10       5       7      11       0      13       2       6      10      11       2
       1       2       3       1       1       1       2       1       2       1      14      15      11      13       0       2      13      11      16       9       2
       3       1       1       3       3       2       3       2       1       1      12      11       9       3       2      12       2      10       0      12       2
       3       1       2       3       2       3       1       2       3       1       2      11       8      11      11       6      11       0       1      10       1
       1       2       2       1       3       2       1       1       2       2       2       1      14      12       2      13      13      10      14       7       2
       2       1       3       2       2       3       2       1       2       1      14      12      12       2      11      12      15       4       0       1       1
       1       1       2       3       2       1       1       1       3       2      11      16       5       1      12       9       9       3      14       7       1
       2       2       3       2       2       1       3       3       1       2       6       2       8      16      10      11      16       5       1       4       2
       3       1       1       1       1       1       3       3       2       2       7      11       0      16       9       3      14      14       4      11       2
       2       1       3       1       1       1       2       2       1       2       1       5      10       5      12      10      16      14      13      12       1
       1       3       1       3       3       1       3       1       1       1       4       0       0      16       7      13       1      11       0      12       1
       3       2       2       2       2       2       3       1       2       2       4       1       3       2       6      14       0      10       3       1       1
       3       3       2       3       2       1       2       3       2       2       8       6      12      12      11       5      13       6      16      12       2
       1       2       3       3       1       2       1       3       2       1       8      10       7      11      10       3      14       0      10       2       1
       3       1       1       1       3       3       2       2       2       3      10       8       7      11      14       8       5      14       2       3       2
       3       1       2       2       3       3       3       2       2       1      15       4      11      14       8      12       0      14       8      10       2
       1       3       1       2       2       3       3       1       1       3       1       3       6       4       0       7       1      13      13       6       1
       3       3       1       3       1       2       2       2       1       2       4      12       3       8       0      14       0      16       8      15       2
       2       2       3       1       1       2       2       1       3       1       3      10      14      14      15      15       0      11       8      15       1
       3       2       3       3       1       1       2       3       3       1       6      16       2       7       8       6       2      15       2      15       1
       1       1       1       2       1       2       3       1       1       3       6      13       0      15      16       1       4      11       2      16       2
       1       3       2       3       3       1       3       1       3       2       3      15      16       2       6       3       2      14       7       7       2
       3       3       2       2       3       2       1       3       2       3       7      16      13       4       4      12       3      10       7      15       1
       2       1       3       2       2       3       2       3       2       1      11       2       9       6       7       7       4       5       2      15       2
       3       3       3       2       3       1       1       3       2       2      10       9       9      14       8       0       1       4      11      11       1
       1       3       2       2       3       3       2       2       1       3       0       7       4      12       6       3       6       6       0      10       2
       2       3       2       3       1       2       3       2       1       1       3       9      14       3       0       7       2       4      13       9       2
       1       1       1       3       1       2       2       3       1       3       9      14       1       3       4      14      15       4       0      15       2
       3       3       1       2       1       3       1       1       1       3      11      15      14      16      13       3       1      10       5       5       1
       2       2       3       3       1       1       3       3       2       3       7      15       6      10       9       5      11       0      11       2       1
       3       2       1       2       3       1       2       2       1       1      13      13      10       5       9      13       8       3       0      13       2
       2       1       1       1       2       3       1       1       2       3      12      16      13      16       1       1      15       8      14      14       1
       3       2       3       3       2       3       2       1       3       2       9       6       9      14      16      12      15       4       7      10       1
       2       2       3       3       2       2       2       3       2       2       0      10       4       6       7       1      10       5       7      13       2
       1       2       1       1       1       3       1       3       3       3       8       1      15       9       7       3       3       3      11       4       1
       3       3       2       1       2       3       3       3       1       2      16      13       2      11      12      10       2      10      16       5       2
       2       3       2       1       2       3       3       2       1       1       0       0       9       4      13       4       9      15       2       7       1
       2       1       1       3       3       2       1       3       1       2       3      10      10       8       0       9       4       5      13      11       2
       2       3       1       2       3       3       1       3       1       1      12      13       7       1       0      13       1       6       2       8       2
       2       2       3       2       2       2       3       1       2       3       9      11      11       7      14       5       0       9      11       0       2
       1       1       2       1       3       2       1       2       2       1      13       4       1       5       5       1       0       7       7      13       2
       3       2       2       2       1       3       1       3       1       3      15       6       6       6      11       8       2      15       4       6       2
       2       3       2       3       2       2       3       2       1       3       3      14       5       6      14       3       2       1      12      12       2
       2       3       2       2       3       1       1       2       1       1      10       7       4       5      13       6       0      11      11      13       1
       3       1       2       3       1       3       3       3       2       3       1      10       6      12      13      11       5       1       3      16       2
       2       1       1       3       1       2       3       1       2       3      16       5      11       0       1       2      15       4      11       1       1
       2       1       3       1       3       2       3       3       1       3      10      13       4       4       0       9      14      11       9       2       2
       2       1       3       1       2       1       2       1       2       2       3       3       0       1       5       8       9      16       4      11       2
       3       2       2       3       1       3       3       1       2       3      16      11       2       8      12      11       6      11       5       3       2
       3       2       3       1       1       3       2       3       2       3       5       3      14      11      10       9       4       9       6       9       1
       2       3       3       3       3       2       2       3       3       2       8      16      16       6       7       1      13      10      12       1       1
       3       3       3       3       3       3       1       2       2       1       2       3      10       4      10       0      12       6      10      12       2
       3       3       1       2       3       3       3       2       1       1       3       2      13      11       4      15       3       7      13       9       1
       3       2       1       2       2       2       2       2       3       3       1      16      14      10       0      14       1       7       6      15       1
       3       1       1       3       2       3       2       1       1       3      16      16       5       4      12      10      14      16      11       7       2
       2       1       2       1       2       1       2       1       3       3       7       3      16       9       6      15       1       5       1       0       1
       3       3       2       2       3       2       2       2       1       2      10       2      14       1      15      10      13       4       6      10       1
       3       3       3       1       3       3       1       1       3       1       6       1       5      16      11       9      11       6       8       3       1
       3       2       1       1       2       1       2       2       2       2       6      13       2      14       1       2       3      11      11       5       1
       3       2       3       3       3       3       3       2       2       2      10       5      15       7      16      11       0      10      11      10       2
       2       3       1       3       1       2       3       3       1       1      13      11       8      15       7       7      12       7       8      10       2
       2       3       2       1       3       2       1       2       2       3      16       7      11       4       7      10      16       2       8      10       2
       1       1       2       2       3       3       3       2       3       2       9       7       9       0      13      10       7       7       4      11       1
       2       3       1       2       2       3       1       1       3       2       9      12      14      15       7      15      11      13       3       5       1
       2       1       1       1       2       2       3       2       1       2      15      16       5      14      13      13       3      15       4       3       1
       1       1       1       1       1       1       2       1       1       1       2      16      14      12       3       8      15       3      13      11       1
       2       1       3       2       1       1       3       2       2       1       4      14      11      12      13       8       3       6       6       6       1
       2       3       2       1       2       2       1       1       1       2       7       7       2       6      13       5       2       0       2      16       2
       3       3       1       2       3       2       3       3       1       3      10      11      10       0      15       3       8       9      16      11       1
       3       3       1       2       2       1       3       2       3       1      13       5      11       0      15      15       6       6      12       5       1
       1       2       2       1       1       3       3       1       2       2       5      14       1      10       3      11       4       0       3       2       1
       2       1       3       3       2       2       1       2       1       3       5      12       7      11       5       6      16      12      14       2       2
       2       1       2       1       3       3       2       3       1       2      10      12       8      16       5      12       5       2       5      11       2
       1       2       2       1       3       2       1       1       1       2       1       0      16      14       3       0      10       2       9      16       1
       1       3       2       1       2       2       3       1       2       3       4      15       9       2      10       6       3      15      14       7       1
       3       2       1       2       2       2       1       2       2       1      11       4       3       1      13       6       5       2       9      11       2
       3       2       3       1       3       3       1       3       3       1       6      11      14      16       9      11       2       2      13       6       1
       1       2       1       3       3       2       2       3       3       2      16      13       1       0       1       1      11       4      16       2       1
       1       2       1       3       2       3       2       1       3       2      15       9      11       3       9       5      11       7      15      11       2
       2       3       1       3       2       2       2       2       1       2      15      13      11       0       6      13      13       3       5      13       1
       1       2       2       1       1       2       1       1       3       1       7       5       4      14       7       9       2      13       1       8       1
       3       3       3       1       2       3       3       3       1       1       8       6       9       3       7      13      13       1       4      15       2
       2       3       3       1       2       3       3       1       2       1       5       5       6       0      14      15      13       3       7      15       2
       1       2       1       2       2       1       3       2       2       3      13      13       6       8       5      13      16      16       1       8       1
       2       1       3       3       3       2       2       3       2       1       0       0      13       9       5       6      14       6       2       9       2
       2       3       1       2       1       2       2       1       3       2      11       8      12       4       9      11      16       9       5       2       2
       2       1       2       3       2       2       1       3       1       2      12       6       5      16       8       6      15      16      15       5       2
       1       3       1       3       3       3       2       1       2       2      14       0       3       3       9       4      12       8      12       2       1
       1       1       3       2       2       2       2       2       2       3       6       6       2      11      16      13       4      16       8      14       2
       2       1       1       2       3       2       2       2       2       2       8      13      15       8      10      10      11      12       8       4       2
       1       3       3       2       2       1       2       1       2       2       7      15       4       9       9      16       2       0      14      10       2
       2       3       1       2       2       3       1       3       2       2      12       9       9      16      15       4       0      13      12       8       1
       3       2       2       3       1       3       3       3       1       3      11      12       4      12       7      12      12       3      11      13       1
       1       2       3       2       2       3       2       1       3       2       0       4      10      14      10       7       5       9       8       2       1
       2       1       1       1       1       3       2       1       2       1      16      12       2       6      16       7       2       3      13       1       1
       1       3       2       3       3       3       2       3       2       2      14       9       3       4      10       3      12       5       0      10       1
       3       1       1       2       1       3       3       3       1       3       1       9       7       8      15       5      14       7      10      10       1
       1       1       3       2       3       3       2       3       1       2      10       3      11      13       6      15       8       5      11      14       2
       2       2       2       2       2       3       3       3       3       3       5       4       2       9       1       7      16      10      14      10       1
       3       3       2       1       3       1       2       1       2       2       1       9       8       1       2       7      12      14       8       2       2
       1       1       3       3       2       3       1       2       1       3      13      11      16      16      15       1      13      11      13      16       2
       2       2       3       3       3       2       1       1       3       3      10       7      10       1      15       7      14      12      14       8       2
       2       2       3       3       2       2       1       1       1       2       3      11       7      12      13      15       9       4      13      12       1
      51      40      34      35      37      30      43      36      44      48
     118     118      59      59     118     118     118     118      59     118
     184     163     167     113     166      88     157     143     220     195